certificates/rado_a14_c142_N27.cnf
c Rad2 upper bound instance: x1 + 14*x2 - x3 = 142, interval [1,27]
p cnf 27 104
1 11 13 0
-1 -11 -13 0
1 12 27 0
-1 -12 -27 0
2 11 14 0
-2 -11 -14 0
1 3 10 0
-1 -3 -10 0
3 11 15 0
-3 -11 -15 0
2 4 10 0
-2 -4 -10 0
4 11 16 0
-4 -11 -16 0
3 5 10 0
-3 -5 -10 0
5 11 17 0
-5 -11 -17 0
4 6 10 0
-4 -6 -10 0
6 11 18 0
-6 -11 -18 0
5 7 10 0
-5 -7 -10 0
7 11 19 0
-7 -11 -19 0
6 8 10 0
-6 -8 -10 0
8 11 20 0
-8 -11 -20 0
7 9 10 0
-7 -9 -10 0
9 11 21 0
-9 -11 -21 0
8 10 0
-8 -10 0
10 11 22 0
-10 -11 -22 0
9 10 11 0
-9 -10 -11 0
11 23 0
-11 -23 0
10 12 0
-10 -12 0
11 12 24 0
-11 -12 -24 0
10 11 13 0
-10 -11 -13 0
11 13 25 0
-11 -13 -25 0
10 12 14 0
-10 -12 -14 0
11 14 26 0
-11 -14 -26 0
10 13 15 0
-10 -13 -15 0
11 15 27 0
-11 -15 -27 0
10 14 16 0
-10 -14 -16 0
1 9 17 0
-1 -9 -17 0
10 15 17 0
-10 -15 -17 0
2 9 18 0
-2 -9 -18 0
10 16 18 0
-10 -16 -18 0
3 9 19 0
-3 -9 -19 0
10 17 19 0
-10 -17 -19 0
4 9 20 0
-4 -9 -20 0
10 18 20 0
-10 -18 -20 0
5 9 21 0
-5 -9 -21 0
10 19 21 0
-10 -19 -21 0
6 9 22 0
-6 -9 -22 0
10 20 22 0
-10 -20 -22 0
7 9 23 0
-7 -9 -23 0
10 21 23 0
-10 -21 -23 0
8 9 24 0
-8 -9 -24 0
10 22 24 0
-10 -22 -24 0
9 25 0
-9 -25 0
10 23 25 0
-10 -23 -25 0
9 10 26 0
-9 -10 -26 0
10 24 26 0
-10 -24 -26 0
9 11 27 0
-9 -11 -27 0
10 25 27 0
-10 -25 -27 0
