certificates/rado_a14_c142_N27.drat
-25 -27 0
10 -27 0
-27 0
25 0
-9 0
11 0
-23 0
-13 0
7 0
-19 0
3 0
-15 0
10 0
-8 0
-12 0
-22 0
-5 0
-1 0
24 0
0
